(set-info :original "/tmp/sea-Ex7sfe/terminator_03_true-unreach-call_true-termination.pp.ms.o.bc")
(set-info :authors "SeaHorn v.0.1.0-rc3")
(declare-rel verifier.error (Bool Bool Bool ))
(declare-rel main@entry (Int ))
(declare-rel main@.preheader (Int Int ))
(declare-rel main@precall.split ())
(declare-var main@%_8_0 Bool )
(declare-var main@%_6_0 Bool )
(declare-var main@%x.0.i_2 Int )
(declare-var main@%_0_0 Int )
(declare-var @__VERIFIER_nondet_int_0 Int )
(declare-var main@%_2_0 Int )
(declare-var main@%_4_0 Bool )
(declare-var main@%_5_0 Bool )
(declare-var main@entry_0 Bool )
(declare-var main@%_1_0 Int )
(declare-var main@%_3_0 Int )
(declare-var main@.preheader.preheader_0 Bool )
(declare-var main@.preheader_0 Bool )
(declare-var main@%x.0.i_0 Int )
(declare-var main@%x.0.i_1 Int )
(declare-var main@precall_0 Bool )
(declare-var main@precall.split_0 Bool )
(declare-var main@%_7_0 Int )
(declare-var main@.preheader_1 Bool )
(declare-var main@precall.loopexit_0 Bool )
(rule (verifier.error false false false))
(rule (verifier.error false true true))
(rule (verifier.error true false true))
(rule (verifier.error true true true))
(rule (main@entry @__VERIFIER_nondet_int_0))
(rule (=> (and (main@entry @__VERIFIER_nondet_int_0)
         true
         (= main@%_0_0 @__VERIFIER_nondet_int_0)
         (= main@%_2_0 @__VERIFIER_nondet_int_0)
         (= main@%_4_0 (< main@%_3_0 1000001))
         main@%_4_0
         (= main@%_5_0 (> main@%_3_0 0))
         (=> main@.preheader.preheader_0
             (and main@.preheader.preheader_0 main@entry_0))
         (=> (and main@.preheader.preheader_0 main@entry_0) main@%_5_0)
         (=> main@.preheader_0
             (and main@.preheader_0 main@.preheader.preheader_0))
         main@.preheader_0
         (=> (and main@.preheader_0 main@.preheader.preheader_0)
             (= main@%x.0.i_0 main@%_1_0))
         (=> (and main@.preheader_0 main@.preheader.preheader_0)
             (= main@%x.0.i_1 main@%x.0.i_0)))
    (main@.preheader main@%x.0.i_1 main@%_3_0)))
(rule (=> (and (main@entry @__VERIFIER_nondet_int_0)
         true
         (= main@%_0_0 @__VERIFIER_nondet_int_0)
         (= main@%_2_0 @__VERIFIER_nondet_int_0)
         (= main@%_4_0 (< main@%_3_0 1000001))
         main@%_4_0
         (= main@%_5_0 (> main@%_3_0 0))
         (=> main@precall_0 (and main@precall_0 main@entry_0))
         (=> (and main@precall_0 main@entry_0) (not main@%_5_0))
         (=> main@precall_0 (not main@%_8_0))
         (=> main@precall_0 false)
         (=> main@precall.split_0 (and main@precall.split_0 main@precall_0))
         main@precall.split_0)
    main@precall.split))
(rule (=> (and (main@.preheader main@%x.0.i_0 main@%_3_0)
         true
         (= main@%_6_0 (< main@%x.0.i_0 100))
         (= main@%_7_0 (+ main@%x.0.i_0 main@%_3_0))
         (=> main@.preheader_1 (and main@.preheader_1 main@.preheader_0))
         main@.preheader_1
         (=> (and main@.preheader_1 main@.preheader_0) main@%_6_0)
         (=> (and main@.preheader_1 main@.preheader_0)
             (= main@%x.0.i_1 main@%_7_0))
         (=> (and main@.preheader_1 main@.preheader_0)
             (= main@%x.0.i_2 main@%x.0.i_1)))
    (main@.preheader main@%x.0.i_2 main@%_3_0)))
(rule (=> (and (main@.preheader main@%x.0.i_0 main@%_3_0)
         true
         (= main@%_6_0 (< main@%x.0.i_0 100))
         (= main@%_7_0 (+ main@%x.0.i_0 main@%_3_0))
         (=> main@precall.loopexit_0
             (and main@precall.loopexit_0 main@.preheader_0))
         (=> (and main@precall.loopexit_0 main@.preheader_0) (not main@%_6_0))
         (=> main@precall_0 (and main@precall_0 main@precall.loopexit_0))
         (=> main@precall_0 (not main@%_8_0))
         (=> main@precall_0 false)
         (=> main@precall.split_0 (and main@precall.split_0 main@precall_0))
         main@precall.split_0)
    main@precall.split))
(query main@precall.split)

